db/inputs/23494141926522538515963882640123311.smt2
(set-logic QF_FP)
(declare-const x0 (_ FloatingPoint 8 24))
(declare-const x1 (_ FloatingPoint 8 24))
(declare-const x2 (_ FloatingPoint 8 24))
(declare-const x3 (_ FloatingPoint 8 24))
(declare-const x4 (_ FloatingPoint 8 24))
(declare-const x5 (_ FloatingPoint 8 24))
(declare-const x6 (_ FloatingPoint 8 24))
(assert (fp.eq (fp.mul RNE x4 x5) (fp.add RNE x2 x5)))
(assert (fp.eq (fp.add RNE x4 x0) (fp.add RNE x3 x3)))
(assert (fp.gt (fp.neg x2) (fp.sub RNE x0 x3)))
(assert (fp.eq (fp.div RNE x3 x3) (fp.neg x4)))
(assert (fp.leq (fp.sub RNE x5 x2) (fp.neg x3)))
(assert (fp.gt (fp.add RNE x6 x5) (fp.div RNE x2 x3)))
(assert (fp.gt (fp.mul RNE x3 x3) (fp.neg x4)))
(assert (fp.lt (fp.neg x6) (fp.add RNE x3 x6)))
(assert (fp.lt (fp.neg x3) (fp.neg x6)))
(check-sat)
