db/data/23494141926522538515963882640123311.z3.out
unsat
-------------------
11.564541457
